ATOMIC_SPECIES
H 1.000 H_ONCV_PBE-1.0.upf
O 1.000 O_ONCV_PBE-1.0.upf

LATTICE_CONSTANT
1.8897261254578281

LATTICE_VECTORS
15.061691462274513 0.0 0.0 
0.303222121639009 14.54246168445968 0.0 
-0.3392986295961846 -0.005914043094844369 14.631545965248963 

ATOMIC_POSITIONS
Cartesian    # Cartesian(Unit is LATTICE_CONSTANT)
H
0.0
2
10.894967168133 0.826545195801 3.261538112500 1 1 1
10.508557331624 14.545198245814 2.336060819768 1 1 1
O
0.0
1
10.149806471490 0.202455768954 3.154743978290 1 1 1

NUMERICAL_ORBITAL
H_gga_6au_60Ry_2s1p.orb
O_gga_6au_60Ry_2s2p1d.orb

NUMERICAL_DESCRIPTOR
jle.orb
