ATOMIC_SPECIES
H 1.000 H_ONCV_PBE-1.0.upf
O 1.000 O_ONCV_PBE-1.0.upf

LATTICE_CONSTANT
1.8897261254578281

LATTICE_VECTORS
14.816961911841027 0.0 0.0 
0.0 14.816961911841027 0.0 
0.0 0.0 14.816961911841027 

ATOMIC_POSITIONS
Cartesian    # Cartesian(Unit is LATTICE_CONSTANT)
H
0.0
2
10.922344264889 0.936534607202 3.141770484183 1 1 1
10.383584285507 14.649829227622 2.214679831731 1 1 1
O
0.0
1
10.183970071030 0.306521248772 3.043869806506 1 1 1

NUMERICAL_ORBITAL
H_gga_6au_60Ry_2s1p.orb
O_gga_6au_60Ry_2s2p1d.orb

NUMERICAL_DESCRIPTOR
jle.orb
