INPUT_PARAMETERS
suffix 			Si
ntype 			1
pseudo_dir 		../../PP_ORB
orbital_dir 		../../PP_ORB
ecutwfc 		100 
scf_thr 		1e-6 
basis_type 		lcao
calculation 		nscf 
init_chg		file
out_dos			1
latname			fcc
symmetry		0
