ATOMIC_SPECIES
Mg 24.305 Mg_ONCV_PBE-1.0.upf upf201
O 15.999 O_ONCV_PBE-1.0.upf upf201

NUMERICAL_ORBITAL
Mg_gga_8au_100Ry_4s2p1d.orb
O_gga_8au_100Ry_2s2p1d.orb

LATTICE_CONSTANT
8.087214649032902

ATOMIC_POSITIONS
Direct

Mg #label
0 #magnetism
1 #number of atoms
0  0  0  m  0  0  0

O #label
0 #magnetism
1 #number of atoms
0.5  0.5  0.5  m  0  0  0
