ATOMIC_SPECIES
Si 28.085 Si_ONCV_PBE-1.0.upf

NUMERICAL_ORBITAL
Si_gga_8au_60Ry_2s2p1d.orb

LATTICE_CONSTANT
1.8897259886 	# 1.8897259886 Bohr = 1.0 Angstrom

LATTICE_VECTORS
5.47    0.00000 0.00000
0.00000 5.47    0.00000
0.00000 0.00000 5.47

ATOMIC_POSITIONS
Direct 

Si	// Element type	
0.0	// magnetism
8	
0.00 0.00 0.00 1 1 1
0.25 0.25 0.25 1 1 1
0.50 0.50 0.00 1 1 1
0.75 0.75 0.25 1 1 1
0.00 0.50 0.50 1 1 1
0.25 0.75 0.75 1 1 1
0.50 0.00 0.50 1 1 1
0.75 0.25 0.75 1 1 1
