ATOMIC_SPECIES
H 1.000 H_ONCV_PBE-1.0.upf
O 1.000 O_ONCV_PBE-1.0.upf

LATTICE_CONSTANT
1.8897261254578281

LATTICE_VECTORS
14.196501370113287 0.0 0.0 
0.14149196197379244 14.411774478653001 0.0 
0.3620744802203386 0.36809231894050404 14.416576579014638 

ATOMIC_POSITIONS
Cartesian    # Cartesian(Unit is LATTICE_CONSTANT)
H
0.0
2
10.744041422444 0.903360685077 2.930072839651 1 1 1
10.273896626549 14.333594059652 1.857728505303 1 1 1
O
0.0
1
10.015848548652 0.289002308233 2.851212441887 1 1 1

NUMERICAL_ORBITAL
H_gga_6au_60Ry_2s1p.orb
O_gga_6au_60Ry_2s2p1d.orb

NUMERICAL_DESCRIPTOR
jle.orb
