ATOMIC_SPECIES
H 1.000 H_ONCV_PBE-1.0.upf
O 1.000 O_ONCV_PBE-1.0.upf

LATTICE_CONSTANT
1.8897261254578281

LATTICE_VECTORS
14.572605233850123 0.0 0.0 
-0.2270956448002686 14.695666158090816 0.0 
0.2513858595169275 -0.3915156026515547 14.565205049289787 

ATOMIC_POSITIONS
Cartesian    # Cartesian(Unit is LATTICE_CONSTANT)
H
0.0
2
10.719761777220 0.959657326218 2.998749495552 1 1 1
10.086952937270 14.404296149380 2.272622209802 1 1 1
O
0.0
1
9.999049603518 0.337667008491 2.899702567260 1 1 1

NUMERICAL_ORBITAL
H_gga_6au_60Ry_2s1p.orb
O_gga_6au_60Ry_2s2p1d.orb

NUMERICAL_DESCRIPTOR
jle.orb
