ATOMIC_SPECIES
B 10.81 B_ONCV_PBE-1.2.upf

LATTICE_CONSTANT
1.8897259886 	# 1.8897259886 Bohr = 1.0 Angstrom

LATTICE_VECTORS
3.07902548 0 0
0 3.07902548 0
0 0 3.07902548

ATOMIC_POSITIONS
Direct

B
0.0
4
0.0 0.0 0.0
0.0 0.5 0.5
0.5 0.0 0.5
0.5 0.5 0.0
