ATOMIC_SPECIES
H 1.000 H_ONCV_PBE-1.0.upf
O 1.000 O_ONCV_PBE-1.0.upf

LATTICE_CONSTANT
1.8897261254578281

LATTICE_VECTORS
14.518982983801363 0.0 0.0 
0.03887453574087803 14.730482518820986 0.0 
0.05546071461876443 -0.36391956484747323 15.17029938555948 

ATOMIC_POSITIONS
Cartesian    # Cartesian(Unit is LATTICE_CONSTANT)
H
0.0
2
10.930729880706 0.885248985718 3.127988478899 1 1 1
10.407758494169 14.610424162833 2.376042028682 1 1 1
O
0.0
1
10.188650404763 0.259060115646 3.024566712099 1 1 1

NUMERICAL_ORBITAL
H_gga_6au_60Ry_2s1p.orb
O_gga_6au_60Ry_2s2p1d.orb

NUMERICAL_DESCRIPTOR
jle.orb
