ATOMIC_SPECIES
Mg 24.305 Mg_ONCV_PBE-1.0.upf
O  15.999 O_ONCV_PBE-1.0.upf

LATTICE_CONSTANT
8.043580875956128

ATOMIC_POSITIONS
Direct 
Mg 
0.0 
1 
0.0 0.0 0.0 0 0 0 

O
0.0 
1 
0.5 0.5 0.5 0 0 0 
