ATOMIC_SPECIES
H 1.000 H_ONCV_PBE-1.0.upf
O 1.000 O_ONCV_PBE-1.0.upf

LATTICE_CONSTANT
1.8897261254578281

LATTICE_VECTORS
14.497850611726255 0.0 0.0 
0.24089897176692748 14.679714762795044 0.0 
-0.033912544482236864 0.34631220796823237 14.180563084654771 

ATOMIC_POSITIONS
Cartesian    # Cartesian(Unit is LATTICE_CONSTANT)
H
0.0
2
10.704596055983 0.866065249356 3.080706709027 1 1 1
10.296025319448 14.296583858191 2.007689776385 1 1 1
O
0.0
1
9.971510876158 0.255064420091 2.989444153789 1 1 1

NUMERICAL_ORBITAL
H_gga_6au_60Ry_2s1p.orb
O_gga_6au_60Ry_2s2p1d.orb

NUMERICAL_DESCRIPTOR
jle.orb
