ATOMIC_SPECIES
H 1.000 H_ONCV_PBE-1.0.upf
O 1.000 O_ONCV_PBE-1.0.upf

LATTICE_CONSTANT
1.8897261254578281

LATTICE_VECTORS
14.630832516059995 0.0 0.0 
-0.2808901038738249 14.933579257848042 0.0 
-0.24857400215048725 -0.012040548493181698 14.639463418933275 

ATOMIC_POSITIONS
Cartesian    # Cartesian(Unit is LATTICE_CONSTANT)
H
0.0
2
10.885413782166 1.040511745982 3.227839501390 1 1 1
10.225443990337 14.752243885326 2.304810625687 1 1 1
O
0.0
1
10.155650120874 0.401019071127 3.127329125568 1 1 1

NUMERICAL_ORBITAL
H_gga_6au_60Ry_2s1p.orb
O_gga_6au_60Ry_2s2p1d.orb

NUMERICAL_DESCRIPTOR
jle.orb
