ATOMIC_SPECIES
H 1.000 H_ONCV_PBE-1.0.upf
O 1.000 O_ONCV_PBE-1.0.upf

LATTICE_CONSTANT
1.8897261254578281

LATTICE_VECTORS
15.171253780589167 0.0 0.0 
0.2331299769392528 14.838175395173488 0.0 
0.3971988720255264 -0.33151222482958553 15.058102208786668 

ATOMIC_POSITIONS
Cartesian    # Cartesian(Unit is LATTICE_CONSTANT)
H
0.0
2
10.967719310345 0.820606326520 2.999853657863 1 1 1
10.529473054267 14.551124268650 2.234842891056 1 1 1
O
0.0
1
10.227273763493 0.195241243105 2.910481383706 1 1 1

NUMERICAL_ORBITAL
H_gga_6au_60Ry_2s1p.orb
O_gga_6au_60Ry_2s2p1d.orb

NUMERICAL_DESCRIPTOR
jle.orb
