ATOMIC_SPECIES
Si 28.085 Si_ONCV_PBE-1.0.upf

NUMERICAL_ORBITAL
Si_gga_8au_60Ry_2s2p1d.orb

LATTICE_CONSTANT
10.336801157641998

ATOMIC_POSITIONS
Direct 

Si	// Element type	
0.0	// magnetism
2	
0.00 0.00 0.00 1 1 1
0.25 0.25 0.25 1 1 1
