ATOMIC_SPECIES
H 1.000 H_ONCV_PBE-1.0.upf
O 1.000 O_ONCV_PBE-1.0.upf

LATTICE_CONSTANT
1.8897261254578281

LATTICE_VECTORS
15.077567059154418 0.0 0.0 
0.28375914011946535 14.541365047956734 0.0 
-0.24822006544213987 -0.15936497858817267 14.670077471896269 

ATOMIC_POSITIONS
Cartesian    # Cartesian(Unit is LATTICE_CONSTANT)
H
0.0
2
10.903512799058 0.812505679848 3.235530070427 1 1 1
10.505557344739 14.538485536185 2.382636945934 1 1 1
O
0.0
1
10.159372774742 0.195290964720 3.126076937383 1 1 1

NUMERICAL_ORBITAL
H_gga_6au_60Ry_2s1p.orb
O_gga_6au_60Ry_2s2p1d.orb

NUMERICAL_DESCRIPTOR
jle.orb
