ATOMIC_SPECIES
H 1.000 H_ONCV_PBE-1.0.upf
O 1.000 O_ONCV_PBE-1.0.upf

LATTICE_CONSTANT
1.8897261254578281

LATTICE_VECTORS
14.162176129726603 0.0 0.0 
0.3002207691138977 14.572577168170435 0.0 
-0.0919318504212346 0.12038373473261038 14.285630302636104 

ATOMIC_POSITIONS
Cartesian    # Cartesian(Unit is LATTICE_CONSTANT)
H
0.0
2
10.700282754124 0.817824113748 3.109040370388 1 1 1
10.322615736979 14.257966389391 2.144728603549 1 1 1
O
0.0
1
9.968523655734 0.206981215990 3.011311569369 1 1 1

NUMERICAL_ORBITAL
H_gga_6au_60Ry_2s1p.orb
O_gga_6au_60Ry_2s2p1d.orb

NUMERICAL_DESCRIPTOR
jle.orb
