ATOMIC_SPECIES
Al 26.982 Al.PD04.PBE.UPF

NUMERICAL_ORBITAL
Al_gga_10au_100Ry_3s3p2d.orb

LATTICE_CONSTANT
1.88972612546

LATTICE_VECTORS
3.23148303625 -6.58014922114e-15 1.53786420614e-15 #latvec1
-6.58014922114e-15 3.23148303625 2.28689910973e-15 #latvec2
1.53766903999e-15 2.28700353468e-15 3.23148303625 #latvec3

ATOMIC_POSITIONS
Direct

Al #label
0 #magnetism
2 #number of atoms
0  0  0  m  1  1  1
0.5  0.5  0.5  m  1  1  1
