Al2 
1.0
3.2314830376765555e+00 -6.5801492240448421e-15 1.5378642068188984e-15 
-6.5801492240448421e-15 3.2314830376765555e+00 2.2868991107395637e-15 
1.5376690406688122e-15 2.2870035356896100e-15 3.2314830376765555e+00 
Al 
2 
Cartesian
   0.0000000000    0.0000000000    0.0000000000
   1.6157415188    1.6157415188    1.6157415188
