INPUT_PARAMETERS
calculation 	relax
ntype 		2
nbands 		8

ecutwfc 	50.000000
scf_thr 	1.000000e-07
scf_nmax 	50

basis_type 	lcao
dft_functional 	lda
gamma_only 	1

mixing_type 	pulay
mixing_beta 	0.400000
smearing_method gaussian
smearing_sigma 	0.020000

relax_nmax	100
force_thr_ev	0.02
stress_thr	0.5

deepks_scf 	1
deepks_bandgap 	0
deepks_model 	model.ptg
