ATOMIC_SPECIES
H 1.00 H_ONCV_PBE-1.0.upf
O 1.00 O_ONCV_PBE-1.0.upf

LATTICE_CONSTANT
1

LATTICE_VECTORS
28 0 0 
0 28 0 
0 0 28 

ATOMIC_POSITIONS
Cartesian

H
0.0
2
-7.356630073377 1.707819477768 5.851375127279 0 0 0
-8.315809397290 -0.230736998458 4.235868438293 0 0 0
O
0.0
1
-8.820276468984 0.556117645521 5.787060818012 0 0 0

NUMERICAL_ORBITAL
H_gga_6au_60Ry_2s1p.orb
O_gga_6au_60Ry_2s2p1d.orb

NUMERICAL_DESCRIPTOR
jle.orb
