ATOMIC_SPECIES
H 1.000 H_ONCV_PBE-1.0.upf
O 1.000 O_ONCV_PBE-1.0.upf

LATTICE_CONSTANT
1.8897261254578281

LATTICE_VECTORS
14.520622673604207 0.0 0.0 
0.0 14.520622673604207 0.0 
0.0 0.0 14.520622673604207 

ATOMIC_POSITIONS
Cartesian    # Cartesian(Unit is LATTICE_CONSTANT)
H
0.0
2
10.703897379592 0.917803915058 3.078935074500 1 1 1
10.175912599796 14.356832643069 2.170386235096 1 1 1
O
0.0
1
9.980290669610 0.300390823797 2.982992410376 1 1 1

NUMERICAL_ORBITAL
H_gga_6au_60Ry_2s1p.orb
O_gga_6au_60Ry_2s2p1d.orb

NUMERICAL_DESCRIPTOR
jle.orb
