ATOMIC_SPECIES
H 1.000 H_ONCV_PBE-1.0.upf
O 1.000 O_ONCV_PBE-1.0.upf

LATTICE_CONSTANT
1.8897261254578281

LATTICE_VECTORS
14.15432411838098 0.0 0.0 
-0.04335689834815352 14.167214765297137 0.0 
-0.34827103917666824 -0.41149413539208857 14.700344832459969 

ATOMIC_POSITIONS
Cartesian    # Cartesian(Unit is LATTICE_CONSTANT)
H
0.0
2
10.659999045709 0.886466978331 3.216395854062 1 1 1
10.131581385294 14.340129158036 2.499703512370 1 1 1
O
0.0
1
9.941288632032 0.272891084886 3.103688676746 1 1 1

NUMERICAL_ORBITAL
H_gga_6au_60Ry_2s1p.orb
O_gga_6au_60Ry_2s2p1d.orb

NUMERICAL_DESCRIPTOR
jle.orb
